
Gurobi 10.0.1 (linux64) logging started Sun Nov 26 16:19:01 2023

Set parameter LogFile to value "ArtificialInstance/ExperimentV2/S3T5K2/BaRo/gurobi91.txt"
Gurobi Optimizer version 10.0.1 build v10.0.1rc0 (linux64)

CPU model: AMD EPYC 7H12 64-Core Processor, instruction set [SSE2|AVX|AVX2]
Thread count: 128 physical cores, 128 logical processors, using up to 32 threads

Academic license 656792 - for non-commercial use only - registered to b.___@student.vu.nl
Optimize a model with 3603 rows, 5441 columns and 18883 nonzeros
Model fingerprint: 0x9ff572f1
Variable types: 1 continuous, 5440 integer (5440 binary)
Coefficient statistics:
  Matrix range     [1e+00, 4e+01]
  Objective range  [1e+00, 2e+01]
  Bounds range     [1e+00, 1e+00]
  RHS range        [1e+00, 1e+00]
Presolve time: 0.03s
Presolved: 3603 rows, 5441 columns, 18883 nonzeros
Variable types: 1 continuous, 5440 integer (5440 binary)
Found heuristic solution: objective 268.3793128

Root relaxation: objective 4.918148e+01, 4135 iterations, 0.18 seconds (0.15 work units)

    Nodes    |    Current Node    |     Objective Bounds      |     Work
 Expl Unexpl |  Obj  Depth IntInf | Incumbent    BestBd   Gap | It/Node Time

     0     0   49.18148    0  720  268.37931   49.18148  81.7%     -    0s
H    0     0                      98.7484513   49.18148  50.2%     -    0s
     0     0   56.10365    0 1026   98.74845   56.10365  43.2%     -    0s
H    0     0                      85.8679654   56.10365  34.7%     -    0s
     0     0   62.03799    0  864   85.86797   62.03799  27.8%     -    0s
     0     0   62.04200    0  932   85.86797   62.04200  27.7%     -    0s
H    0     0                      82.1538247   63.51288  22.7%     -    1s
     0     0   63.51288    0 1114   82.15382   63.51288  22.7%     -    1s
H    0     0                      82.1260509   63.51288  22.7%     -    1s
     0     0   63.52281    0 1176   82.12605   63.52281  22.7%     -    1s
     0     0   63.52679    0 1180   82.12605   63.52679  22.6%     -    1s
     0     0   64.85491    0 1149   82.12605   64.85491  21.0%     -    1s
     0     0   65.13278    0 1235   82.12605   65.13278  20.7%     -    1s
     0     0   65.15153    0 1150   82.12605   65.15153  20.7%     -    1s
     0     0   65.16488    0 1209   82.12605   65.16488  20.7%     -    1s
     0     0   65.16488    0 1215   82.12605   65.16488  20.7%     -    1s
     0     0   65.47696    0 1183   82.12605   65.47696  20.3%     -    1s
     0     0   65.56817    0 1133   82.12605   65.56817  20.2%     -    1s
     0     0   65.57804    0 1167   82.12605   65.57804  20.1%     -    1s
     0     0   65.57804    0 1171   82.12605   65.57804  20.1%     -    1s
     0     0   66.55753    0 1213   82.12605   66.55753  19.0%     -    2s
     0     0   66.62875    0 1183   82.12605   66.62875  18.9%     -    2s
     0     0   66.64721    0 1163   82.12605   66.64721  18.8%     -    2s
     0     0   66.64737    0 1167   82.12605   66.64737  18.8%     -    2s
     0     0   67.05433    0 1219   82.12605   67.05433  18.4%     -    2s
     0     0   67.22875    0 1258   82.12605   67.22875  18.1%     -    2s
     0     0   67.27394    0 1264   82.12605   67.27394  18.1%     -    2s
     0     0   67.27433    0 1259   82.12605   67.27433  18.1%     -    2s
     0     0   67.70891    0 1219   82.12605   67.70891  17.6%     -    3s
     0     0   67.81828    0 1281   82.12605   67.81828  17.4%     -    3s
     0     0   67.81928    0 1331   82.12605   67.81928  17.4%     -    3s
     0     0   68.44375    0 1311   82.12605   68.44375  16.7%     -    3s
     0     0   68.49994    0 1240   82.12605   68.49994  16.6%     -    3s
     0     0   68.50127    0 1271   82.12605   68.50127  16.6%     -    3s
     0     0   68.50265    0 1212   82.12605   68.50265  16.6%     -    3s
     0     0   68.50270    0 1239   82.12605   68.50270  16.6%     -    3s
     0     0   68.53370    0 1192   82.12605   68.53370  16.6%     -    3s
     0     0   68.53370    0 1146   82.12605   68.53370  16.6%     -    4s
     0     2   68.53370    0 1146   82.12605   68.53370  16.6%     -    5s
H   68    82                      81.2049547   73.16601  9.90%   951    6s
H   75    82                      80.7504209   73.16601  9.39%   954    6s

Cutting planes:
  Gomory: 9
  Zero half: 292
  RLT: 115

Explored 1122 nodes (414800 simplex iterations) in 9.79 seconds (9.99 work units)
Thread count was 32 (of 128 available processors)

Solution count 7: 80.7504 81.205 82.1261 ... 268.379

Optimal solution found (tolerance 1.00e-04)
Best objective 8.075042085864e+01, best bound 8.075042085864e+01, gap 0.0000%
